
Welcome to IBM(R) ILOG(R) CPLEX(R) Interactive Optimizer 12.7.1.0
  with Simplex, Mixed Integer & Barrier Optimizers
5725-A06 5725-A29 5724-Y48 5724-Y49 5724-Y54 5724-Y55 5655-Y21
Copyright IBM Corp. 1988, 2017.  All Rights Reserved.

Type 'help' for a list of available commands.
Type 'help' followed by a command name for more
information on commands.

CPLEX> New value for default parallel thread count: 1
CPLEX> New value for time limit in seconds: 3600
CPLEX> Problem 'eil76_m35.lp' read.
Read time = 0.25 sec. (21.88 ticks)
CPLEX> CPXPARAM_TimeLimit                               3600
CPXPARAM_Threads                                 1
CPXPARAM_Read_APIEncoding                        "UTF-8"
Tried aggregator 1 time.
MIP Presolve modified 204750 coefficients.
Reduced MIP has 8430 rows, 199576 columns, and 1192805 nonzeros.
Reduced MIP has 199500 binaries, 75 generals, 0 SOSs, and 0 indicators.
Presolve time = 0.74 sec. (908.37 ticks)
Tried aggregator 1 time.
Reduced MIP has 8430 rows, 199576 columns, and 1192805 nonzeros.
Reduced MIP has 199500 binaries, 76 generals, 0 SOSs, and 0 indicators.
Presolve time = 0.77 sec. (631.47 ticks)
Probing time = 0.23 sec. (95.13 ticks)
Clique table members: 390388.
MIP emphasis: balance optimality and feasibility.
MIP search method: dynamic search.
Parallel mode: none, using 1 thread.
Root relaxation solution time = 67.40 sec. (107186.44 ticks)

        Nodes                                         Cuts/
   Node  Left     Objective  IInf  Best Integer    Best Bound    ItCnt     Gap

      0     0       45.3526   297                     45.3526    52413         
      0     0       46.1157   280                    Cuts: 57    85632         
      0     0       47.0000   438                    Cuts: 91   128809         
      0     0       47.0000   574                   Cuts: 109   160363         
      0     0       47.0000   445                    Cuts: 28   176152         
      0     0       47.0000   459                   Cuts: 112   201593         
Heuristic still looking.
Heuristic still looking.
      0     2       47.0000   263                     47.0000   201593         
Elapsed time = 658.10 sec. (1023665.40 ticks, tree = 0.01 MB, solutions = 0)
      1     3       47.0000   353                     47.0000   217579         
      2     4       47.0000   362                     47.0000   227183         
      3     5       47.0000   344                     47.0000   227441         
      4     6       47.0000   368                     47.0000   227914         
      5     7       47.0000   383                     47.0000   238114         
      6     8       47.0000   376                     47.0000   248397         
      7     9       47.0000   385                     47.0000   261887         
      8    10       47.0000   345                     47.0000   263080         
      9    11       47.0000   329                     47.0000   263481         
     10    12       47.0000   326                     47.0000   263662         
Elapsed time = 835.07 sec. (1314759.36 ticks, tree = 1.67 MB, solutions = 0)
     11    13       47.0000   328                     47.0000   273715         
     14    16       47.0000   313                     47.0000   274032         
     17    19       47.0000   288                     47.0000   274365         
     18    20       47.0000   292                     47.0000   277505         
     19    21       47.0000   305                     47.0000   278586         
     22    22       47.0000   278                     47.0000   281659         
     24    24       47.0000   294                     47.0000   286653         
     25    25       47.0000   279                     47.0000   286730         
     26    26       47.0000   294                     47.0000   286924         
     27    27       47.0000   280                     47.0000   287161         
Elapsed time = 870.12 sec. (1377955.38 ticks, tree = 4.31 MB, solutions = 0)
     28    28       47.0000   277                     47.0000   287368         
     32    32       52.0000   196                     47.0000   287874         
     37    36       53.1463   264                     47.0000   289936         
     39    38       56.0488   247                     47.0000   293696         
     47    45       47.0000   274                     47.0000   294298         
     48    46       60.0000   246                     47.0000   296062         
     56    53       81.1463   123                     47.0000   296598         
     64    61       47.0023   277                     47.0000   298031         
     65    62       47.4110   273                     47.0000   300786         
     71    64       60.3659   217                     47.0000   301361         
Elapsed time = 884.31 sec. (1402760.23 ticks, tree = 10.95 MB, solutions = 0)
     80    71       62.0488   173                     47.0000   301458         
    110    93      115.6829   114                     47.0000   301773         
    138   116      162.0732    94                     47.0000   302158         
    166   136      178.0000    10                     47.0000   302584         
*   171   119      integral     0      178.0000       47.0000   302653   73.60%
    172   118       53.0000   238      178.0000       47.0000   304129   73.60%
    173   119       61.1111   218      178.0000       47.0000   306935   73.60%
    182   123       70.1829   193      178.0000       47.0000   307437   73.60%
    200   136      137.2927   146      178.0000       47.0000   307758   73.60%
    214   141       56.0732   238      178.0000       47.0000   309955   73.60%
    215   142       61.1111   215      178.0000       47.0000   313696   73.60%
Elapsed time = 895.79 sec. (1420323.43 ticks, tree = 25.07 MB, solutions = 1)
    220   147       70.1829   196      178.0000       47.0000   314190   73.60%
    233   160       85.0488   163      178.0000       47.0000   314720   73.60%
    258   182      111.1707   136      178.0000       47.0000   315043   73.60%
    274   196      141.0000   131      178.0000       47.0000   315259   73.60%
    298   220      141.0000   141      178.0000       47.0000   315595   73.60%
    317   239      141.0000   148      178.0000       47.0000   316033   73.60%
    332   254      141.0000   108      178.0000       47.0000   316553   73.60%
    340   262      141.0000   134      178.0000       47.0000   316656   73.60%
    360   282      141.0000   132      178.0000       47.0000   317097   73.60%
    379   295      141.0000   121      178.0000       47.0000   317504   73.60%
Elapsed time = 903.53 sec. (1431755.28 ticks, tree = 52.89 MB, solutions = 1)
    401   311      141.0000    93      178.0000       47.0000   317972   73.60%
    402   312       50.2520   253      178.0000       47.0000   319846   73.60%
    410   318       70.1829   193      178.0000       47.0000   320369   73.60%
    433   339       98.0976   155      178.0000       47.0000   320676   73.60%
    467   373       98.0976   173      178.0000       47.0000   320865   73.60%
    499   404      119.0000   171      178.0000       47.0000   321086   73.60%
*   516+  419                          176.0000       47.0000            73.30%
*   516+  410                          155.0000       47.0000            69.68%
    516   412       83.0000   236      155.0000       47.0000   325577   69.68%
*   517+  404                          147.0000       47.0000            68.03%
    517   406       85.2195   149      147.0000       47.0000   325768   68.03%
    518   406       47.4326   283      147.0000       47.0000   328039   68.03%
    520   408       58.5455   217      147.0000       47.0000   334592   68.03%
Elapsed time = 980.62 sec. (1538707.84 ticks, tree = 73.36 MB, solutions = 4)
    527   415       74.0732   204      147.0000       47.0000   335099   68.03%
    541   428       91.0000   209      147.0000       47.0000   335449   68.03%
    560   447       91.2439   193      147.0000       47.0000   335755   68.03%
    588   475       91.3171   201      147.0000       47.0000   335977   68.03%
    608   494      125.0000   147      147.0000       47.0000   336252   68.03%
    627   513       47.0000   274      147.0000       47.0000   486263   68.03%
    628   514       47.0000   401      147.0000       47.0000   510814   68.03%
    629   515       47.0000   360      147.0000       47.0000   528063   68.03%
    630   516       47.0000   361      147.0000       47.0000   528346   68.03%
    631   517       47.0000   424      147.0000       47.0000   529180   68.03%
Elapsed time = 2228.62 sec. (3326734.49 ticks, tree = 92.49 MB, solutions = 4)
    632   518       47.0000   351      147.0000       47.0000   542894   68.03%
    633   519       47.0000   383      147.0000       47.0000   551129   68.03%
    634   519       47.0000   386      147.0000       47.0000   567880   68.03%
    635   519       47.0000   354      147.0000       47.0000   568258   68.03%
    636   519       47.0000   342      147.0000       47.0000   575523   68.03%
    637   519       47.0000   305      147.0000       47.0000   586433   68.03%
    638   520       47.0000   343      147.0000       47.0000   586674   68.03%
    639   521       47.0000   306      147.0000       47.0000   586739   68.03%
    640   522       47.0000   309      147.0000       47.0000   587506   68.03%
    641   521       47.0000   307      147.0000       47.0000   587657   68.03%
Elapsed time = 2397.91 sec. (3618293.10 ticks, tree = 93.48 MB, solutions = 4)
    642   521       47.0000   321      147.0000       47.0000   587869   68.03%
    643   521       47.0000   316      147.0000       47.0000   587982   68.03%
    644   521       56.1951   232      147.0000       47.0000   588890   68.03%
    645   522       47.0000   315      147.0000       47.0000   588893   68.03%
    646   522       47.0000   302      147.0000       47.0000   589605   68.03%
    647   522       47.0000   304      147.0000       47.0000   589796   68.03%
    648   522       47.0000   310      147.0000       47.0000   589854   68.03%
    649   523       47.0000   310      147.0000       47.0000   590018   68.03%
    650   523       47.0000   316      147.0000       47.0000   590048   68.03%
    651   523       47.0000   298      147.0000       47.0000   590332   68.03%
Elapsed time = 2458.15 sec. (3746106.81 ticks, tree = 93.61 MB, solutions = 4)
    652   524       47.0000   312      147.0000       47.0000   590870   68.03%
    653   524       47.0000   299      147.0000       47.0000   590888   68.03%
    654   525       47.0000   320      147.0000       47.0000   591137   68.03%
    655   525       47.0000   311      147.0000       47.0000   591268   68.03%
    657   526       47.0000   307      147.0000       47.0000   591667   68.03%
    659   527       47.0000   280      147.0000       47.0000   591686   68.03%
    660   528       47.0000   281      147.0000       47.0000   591703   68.03%
    661   529       47.0000   277      147.0000       47.0000   592734   68.03%
    662   529       47.0000   302      147.0000       47.0000   593619   68.03%
    665   531       47.0000   298      147.0000       47.0000   593898   68.03%
Elapsed time = 2485.63 sec. (3796715.30 ticks, tree = 94.99 MB, solutions = 4)
    666   532       54.1951   291      147.0000       47.0000   602692   68.03%
    669   532       47.0000   300      147.0000       47.0000   603226   68.03%
    674   537       98.0000   114      147.0000       47.0000   603549   68.03%
    678   527       47.0000   288      147.0000       47.0000   604308   68.03%
    682   529       47.0000   271      147.0000       47.0000   605060   68.03%
    688   530       52.2927   244      147.0000       47.0000   605517   68.03%
    699   522       60.0000   206      147.0000       47.0000   605980   68.03%
    712   517       60.0000   179      147.0000       47.0000   606189   68.03%
    724   519       65.0000   150      147.0000       47.0000   606644   68.03%
    737   526       65.0000   156      147.0000       47.0000   607143   68.03%
Elapsed time = 2520.34 sec. (3848854.79 ticks, tree = 93.92 MB, solutions = 4)
    747   520       68.0000   142      147.0000       47.0000   607803   68.03%
    755   518       74.8481   149      147.0000       47.0000   608092   68.03%
    770   521       99.0000   122      147.0000       47.0000   608384   68.03%
    781   528      132.0000   103      147.0000       47.0000   608676   68.03%
    791   532      100.0000   126      147.0000       47.0000   608901   68.03%
    804   531       47.0000   296      147.0000       47.0000   611944   68.03%
    806   532       47.0000   300      147.0000       47.0000   616929   68.03%
    808   533       47.0000   337      147.0000       47.0000   617992   68.03%
    809   533       47.0000   321      147.0000       47.0000   618719   68.03%
    811   533       47.0000   322      147.0000       47.0000   619031   68.03%
Elapsed time = 2607.55 sec. (3985420.64 ticks, tree = 95.66 MB, solutions = 4)
    812   534       47.0000   287      147.0000       47.0000   621265   68.03%
    814   536       47.0000   308      147.0000       47.0000   621935   68.03%
    816   537       47.0000   310      147.0000       47.0000   622950   68.03%
    817   538       47.0000   277      147.0000       47.0000   628484   68.03%
    819   539       47.0000   257      147.0000       47.0000   629122   68.03%
    820   539       47.0000   274      147.0000       47.0000   630144   68.03%
    821   539       49.4268   320      147.0000       47.0000   634901   68.03%
    827   538       58.0000   233      147.0000       47.0000   635009   68.03%
    835   541       58.0000   192      147.0000       47.0000   635304   68.03%
    841   544       58.0000   211      147.0000       47.0000   635470   68.03%
Elapsed time = 2651.31 sec. (4053871.74 ticks, tree = 97.37 MB, solutions = 4)
    849   548       58.0000   240      147.0000       47.0000   635693   68.03%
    855   549       58.0000   207      147.0000       47.0000   635962   68.03%
    863   554       58.0000   236      147.0000       47.0000   636255   68.03%
    870   559       58.0000   244      147.0000       47.0000   636625   68.03%
    876   563       58.0000   261      147.0000       47.0000   640243   68.03%
    878   564       58.0000   245      147.0000       47.0000   655207   68.03%
    881   564       58.0732   226      147.0000       47.0000   655799   68.03%
    886   567       59.0000   224      147.0000       47.0000   657238   68.03%
    892   572       59.0000   204      147.0000       47.0000   659263   68.03%
    897   575       59.0000   225      147.0000       47.0000   665711   68.03%
Elapsed time = 2703.24 sec. (4129398.22 ticks, tree = 102.86 MB, solutions = 4)
    898   576       59.0000   229      147.0000       47.0000   669769   68.03%
    900   576       59.0000   222      147.0000       47.0000   675805   68.03%
    904   578       59.0000   193      147.0000       47.0000   676852   68.03%
    905   578       60.0234   231      147.0000       47.0000   688487   68.03%
    912   575       70.0000   173      147.0000       47.0000   688850   68.03%
    920   575       73.0000   173      147.0000       47.0000   688986   68.03%
    930   579       73.0000   177      147.0000       47.0000   689196   68.03%
    940   583       74.0000   194      147.0000       47.0000   689353   68.03%
    952   589      116.0000   142      147.0000       47.0000   689590   68.03%
    962   597      116.0000   153      147.0000       47.0000   689839   68.03%
Elapsed time = 2745.11 sec. (4187966.30 ticks, tree = 106.82 MB, solutions = 4)
    973   599      116.0000   145      147.0000       47.0000   690206   68.03%
    986   603      117.0000   153      147.0000       47.0000   690615   68.03%
   1001   609      118.0000   105      147.0000       47.0000   691019   68.03%
   1022   606       47.3440   273      147.0000       47.0000   694406   68.03%
   1028   605       48.0000   304      147.0000       47.0000   701110   68.03%
   1029   604       84.0732   283      147.0000       47.0000   710670   68.03%
   1030   604       84.0732   311      147.0000       47.0000   726343   68.03%
   1032   604       86.0000   295      147.0000       47.0000   749866   68.03%
   1033   604       86.0000   317      147.0000       47.0000   771740   68.03%
   1034   605       86.0000   315      147.0000       47.0000   800718   68.03%
Elapsed time = 2933.11 sec. (4469896.16 ticks, tree = 108.33 MB, solutions = 4)
   1036   606       86.0000   326      147.0000       47.0000   801513   68.03%
   1039   609       86.0000   316      147.0000       47.0000   802049   68.03%
   1041   610       86.0000   323      147.0000       47.0000   802743   68.03%
   1045   613       87.0000   250      147.0000       47.0000   803190   68.03%
   1049   616       87.0000   298      147.0000       47.0000   828659   68.03%
   1052   617       87.0000   303      147.0000       47.0000   829251   68.03%
   1054   617       87.0000   216      147.0000       47.0000   861707   68.03%
   1057   618       87.0000   205      147.0000       47.0000   883466   68.03%
   1058   619      141.0000   224      147.0000       47.0000   901929   68.03%
   1060   620      141.0000   169      147.0000       47.0000   920782   68.03%
Elapsed time = 3093.57 sec. (4702240.81 ticks, tree = 110.94 MB, solutions = 4)
   1062   621      141.0000   199      147.0000       47.0000   938225   68.03%
   1064   622      141.0000   273      147.0000       47.0000   956605   68.03%
   1066   624      141.0000   230      147.0000       47.0000   975198   68.03%
   1069   625      141.0000   182      147.0000       47.0000   977717   68.03%
   1071   626      141.0000   201      147.0000       47.0000   979541   68.03%
   1073   626      141.0000   229      147.0000       47.0000   981086   68.03%
   1076   628      141.0000   163      147.0000       47.0000   983412   68.03%
   1081   630      141.0000    97      147.0000       47.0000   985232   68.03%
   1088   629        cutoff            147.0000       47.0000   987857   68.03%
   1099   630      142.0000   101      147.0000       47.0000   988682   68.03%
Elapsed time = 3188.50 sec. (4835452.99 ticks, tree = 112.94 MB, solutions = 4)
   1105   626       59.1829   222      147.0000       47.0000   993441   68.03%
   1112   629       60.0000   205      147.0000       47.0000   993973   68.03%
   1121   632       60.0000   219      147.0000       47.0000   994299   68.03%
   1131   637       60.0000   217      147.0000       47.0000   994476   68.03%
   1142   644       88.0000   173      147.0000       47.0000   994641   68.03%
   1154   649       88.0000   196      147.0000       47.0000   994759   68.03%
   1161   649       88.0000   157      147.0000       47.0000   996730   68.03%
   1171   653      122.0732   112      147.0000       47.0000   997042   68.03%
   1180   655      124.5854   156      147.0000       47.0000  1002649   68.03%
   1190   657      132.0000   132      147.0000       47.0000  1003046   68.03%
Elapsed time = 3221.05 sec. (4879685.62 ticks, tree = 117.65 MB, solutions = 4)
   1205   649       59.0610   288      147.0000       47.0000  1008924   68.03%
   1207   649       59.0610   245      147.0000       47.0000  1010321   68.03%
   1216   653       60.0000   244      147.0000       47.0000  1010628   68.03%
   1225   660       60.0000   242      147.0000       47.0000  1011009   68.03%
   1235   661       60.0000   211      147.0000       47.0000  1011496   68.03%
   1242   665       60.0000   200      147.0000       47.0000  1012328   68.03%
   1249   668       60.0000   217      147.0000       47.0000  1013316   68.03%
   1253   670       60.0000   273      147.0000       47.0000  1015209   68.03%
   1259   670       60.0000   216      147.0000       47.0000  1016179   68.03%
   1267   674       60.0000   193      147.0000       47.0000  1017239   68.03%
Elapsed time = 3255.63 sec. (4928727.69 ticks, tree = 120.70 MB, solutions = 4)
   1272   672       61.0000   176      147.0000       47.0000  1018934   68.03%
   1281   676       61.0000   196      147.0000       47.0000  1019305   68.03%
   1291   679       64.0139   191      147.0000       47.0000  1019965   68.03%
   1303   683       98.0000   132      147.0000       47.0000  1020196   68.03%
   1311   686       66.2279   177      147.0000       47.0000  1020728   68.03%
   1326   694       67.0000   172      147.0000       47.0000  1021052   68.03%
   1335   696       71.4952   158      147.0000       47.0000  1021767   68.03%
   1347   699       73.5705   155      147.0000       47.0000  1022081   68.03%
   1361   703       74.4436   141      147.0000       47.0000  1022672   68.03%
   1374   705       80.8554   154      147.0000       47.0000  1023536   68.03%
Elapsed time = 3284.41 sec. (4970145.81 ticks, tree = 126.41 MB, solutions = 4)
   1387   707       91.3204   136      147.0000       47.0000  1024227   68.03%
   1408   714      116.7105    86      147.0000       47.0000  1024618   68.03%
   1411   710       49.1280   314      147.0000       47.0000  1032837   68.03%
   1412   710       55.0732   360      147.0000       47.0000  1040192   68.03%
   1413   710       55.0732   390      147.0000       47.0000  1042050   68.03%
   1416   710       56.0000   325      147.0000       47.0000  1042964   68.03%
   1417   711       56.0000   296      147.0000       47.0000  1060144   68.03%
   1419   711       56.0000   313      147.0000       47.0000  1060809   68.03%
   1422   711       56.0000   280      147.0000       47.0000  1061619   68.03%
   1424   712       56.0000   311      147.0000       47.0000  1062776   68.03%
Elapsed time = 3348.12 sec. (5066650.41 ticks, tree = 127.70 MB, solutions = 4)
   1428   714       56.0000   286      147.0000       47.0000  1063213   68.03%
   1432   717       56.0000   311      147.0000       47.0000  1077149   68.03%
   1433   718       56.0000   329      147.0000       47.0000  1092312   68.03%
   1434   718       98.0000   352      147.0000       47.0000  1104525   68.03%
   1436   719       98.0000   372      147.0000       47.0000  1104697   68.03%
   1438   721       98.0000   366      147.0000       47.0000  1123183   68.03%
   1440   721       98.0000   342      147.0000       47.0000  1123521   68.03%
   1444   723      105.0000   317      147.0000       47.0000  1142848   68.03%
   1447   725      105.0000   321      147.0000       47.0000  1143153   68.03%
   1448   725      105.0000   319      147.0000       47.0000  1160629   68.03%
Elapsed time = 3485.59 sec. (5268434.21 ticks, tree = 129.97 MB, solutions = 4)
   1449   725      105.0000   307      147.0000       47.0000  1161999   68.03%
   1450   725      105.0000   318      147.0000       47.0000  1202561   68.03%
   1453   727      105.0000   280      147.0000       47.0000  1202736   68.03%
   1456   727      105.0000   225      147.0000       47.0000  1220348   68.03%
   1458   729      116.0000   246      147.0000       47.0000  1243772   68.03%
   1464   732      116.0000   238      147.0000       47.0000  1244054   68.03%
   1472   736      116.0000   194      147.0000       47.0000  1244265   68.03%
   1480   738      116.0000   205      147.0000       47.0000  1244558   68.03%
   1489   742      116.0000   194      147.0000       47.0000  1244803   68.03%
   1498   746      116.0000   194      147.0000       47.0000  1245013   68.03%
Elapsed time = 3593.09 sec. (5419362.69 ticks, tree = 133.70 MB, solutions = 4)
   1508   749      118.0000   198      147.0000       47.0000  1245170   68.03%
   1516   749      119.0000   192      147.0000       47.0000  1245268   68.03%

Clique cuts applied:  3
Cover cuts applied:  7
Mixed integer rounding cuts applied:  33
Zero-half cuts applied:  17

Root node processing (before b&c):
  Real time             =  615.41 sec. (992404.16 ticks)
Sequential b&c:
  Real time             = 2984.60 sec. (4436160.53 ticks)
                          ------------
Total (root+branch&cut) = 3600.01 sec. (5428564.69 ticks)

Solution pool: 4 solutions saved.

MIP - Time limit exceeded, integer feasible:  Objective =  1.4700000000e+02
Current MIP best bound =  4.7000000000e+01 (gap = 100, 68.03%)
Solution time = 3600.01 sec.  Iterations = 1245377  Nodes = 1518 (750)
Deterministic time = 5428565.26 ticks  (1507.93 ticks/sec)

CPLEX> Incumbent solution
Variable Name           Solution Value
y                           147.000000
x58                           1.000000
x5787                         1.000000
x11612                        1.000000
x17368                        1.000000
x23146                        1.000000
x28943                        1.000000
x34688                        1.000000
x40496                        1.000000
x46256                        1.000000
x51991                        1.000000
x57797                        1.000000
x63574                        1.000000
x69380                        1.000000
x75135                        1.000000
x80918                        1.000000
x86701                        1.000000
x92485                        1.000000
x98243                        1.000000
x104024                       1.000000
x109780                       1.000000
x115541                       1.000000
x121302                       1.000000
x127080                       1.000000
x132920                       1.000000
x138641                       1.000000
x144429                       1.000000
x150242                       1.000000
x155957                       1.000000
x161731                       1.000000
x167574                       1.000000
x173325                       1.000000
x179087                       1.000000
x184854                       1.000000
x190632                       1.000000
x196425                       1.000000
x5701                         1.000000
x9729                         1.000000
x16873                        1.000000
x21433                        1.000000
x23181                        1.000000
x33593                        1.000000
x37241                        1.000000
x40661                        1.000000
x49857                        1.000000
x52441                        1.000000
x60497                        1.000000
x64677                        1.000000
x70149                        1.000000
x78585                        1.000000
x81777                        1.000000
x91201                        1.000000
x95685                        1.000000
x103665                       1.000000
x107161                       1.000000
x111721                       1.000000
x117041                       1.000000
x121677                       1.000000
x128441                       1.000000
x137257                       1.000000
x139917                       1.000000
x146529                       1.000000
x155041                       1.000000
x158385                       1.000000
x161881                       1.000000
x172749                       1.000000
x176169                       1.000000
x179665                       1.000000
x190381                       1.000000
x192357                       1.000000
x199425                       1.000000
x26222                        1.000000
x41120                        1.000000
x181345                       1.000000
x42114                        1.000000
x74416                        1.000000
x84905                        1.000000
x138258                       1.000000
x186443                       1.000000
x66364                        1.000000
x139858                       1.000000
x127623                       1.000000
x49800                        1.000000
x45243                        1.000000
x101941                       1.000000
x37038                        1.000000
x112431                       1.000000
x177944                       1.000000
x47682                        1.000000
x156289                       1.000000
x3910                         1.000000
x36591                        1.000000
x178335                       1.000000
x108191                       1.000000
x97628                        1.000000
x102038                       1.000000
x48461                        1.000000
x103866                       1.000000
x4308                         1.000000
x6589                         1.000000
x20347                        1.000000
x4389                         1.000000
x133895                       1.000000
x176686                       1.000000
x155181                       1.000000
x175399                       1.000000
x16107                        1.000000
x100089                       1.000000
x185970                       1.000000
x101687                       1.000000
x2584                         1.000000
u2                           40.000000
u4                            4.000000
u6                            1.000000
u9                            1.000000
u10                           2.000000
u12                           1.000000
u13                           1.000000
u14                          39.000000
u15                           1.000000
u16                           1.000000
u18                           1.000000
u19                           1.000000
u20                           1.000000
u23                           1.000000
u25                           4.000000
u26                           1.000000
u27                           2.000000
u28                           2.000000
u30                          39.000000
u33                           1.000000
u34                           4.000000
u35                           2.000000
u39                           4.000000
u43                          40.000000
u44                           1.000000
u46                           1.000000
u47                          40.000000
u49                          40.000000
u50                           3.000000
u52                           3.000000
u53                          40.000000
u55                           1.000000
u57                           1.000000
u59                          40.000000
u62                           1.000000
u65                          40.000000
u67                           3.000000
u71                          40.000000
u73                           5.000000
u74                          40.000000
u75                           2.000000
u76                          40.000000
All other variables in the range 1-199576 are 0.
CPLEX> 